# Please generate POTCAR in this order: 	Fe O
1.0
    4.352278094321131      -2.512788929344410       0.000000000000001
       0.000000000000000       5.025577858688830       0.000000000000002
      -0.000000000000004      -0.000000000000004      13.694325366675399
  Fe  O 
 12  18
Direct
   0.6666666666666670   0.3333333333333330  -0.0216666666666670   T T T
  -0.0000000000000000  -0.0000000000000000   0.8550000000000000   T T T 
   0.3333333333333330   0.6666666666666670   0.8116666666666671   T T T 
   0.6666666666666670   0.3333333333333330   0.6883333333333330   T T T  
  -0.0000000000000000  -0.0000000000000000  -0.3550000000000000   T T T
   0.3333333333333330   0.6666666666666670   0.5216666666666672   T T T 
   0.6666666666666670   0.3333333333333330   0.4783333333333332   T T T            
   0.0000000000000000   0.0000000000000000   0.3550000000000000   T T T
   0.3333333333333330   0.6666666666666670   0.3116666666666671   T T T  
   0.6666666666666670   0.3333333333333330   0.1883333333333330   T T T
   0.0000000000000000   0.0000000000000000   0.1450000000000001   T T T 
   0.3333333333333330   0.6666666666666670   0.0216666666666672   T T T
   0.2999999999999997   0.0000000000000000   0.2500000000000001   T T T
   0.9666666666666667   0.3333333333333330   0.5833333333333332   T T T
   0.6333333333333328   0.6666666666666670   0.9166666666666672   T T T
   0.0000000000000000   0.2999999999999997   0.2500000000000001   T T T
   0.6666666666666670   0.6333333333333326   0.5833333333333332   T T T
   0.3333333333333330   0.9666666666666667   0.9166666666666672   T T T
  -0.2999999999999997  -0.2999999999999997   0.2500000000000001   T T T
   0.3666666666666673   0.0333333333333333   0.5833333333333332   T T T
   0.0333333333333333   0.3666666666666673   0.9166666666666673   T T T
  -0.2999999999999997  -0.0000000000000000  -0.2500000000000001   T T T
   0.3666666666666673   0.3333333333333330   0.0833333333333329   T T T
   0.0333333333333333   0.6666666666666670   0.4166666666666670   T T T
  -0.0000000000000000  -0.2999999999999997  -0.2500000000000001   T T T
   0.6666666666666670   0.0333333333333333   0.0833333333333329   T T T
   0.3333333333333330   0.3666666666666673   0.4166666666666670   T T T
   0.2999999999999997   0.2999999999999997  -0.2500000000000001   T T T
   0.9666666666666667   0.6333333333333326   0.0833333333333329   T T T
   0.6333333333333328   0.9666666666666667   0.4166666666666670   T T T












