# Please generate POTCAR in this order: 
   1.00000000000000     
     4.3522780943211314   -2.5127889293444099    0.0000000000000010
     0.0000000000000000    5.0255778586888296    0.0000000000000020
    -0.0000000000000040   -0.0000000000000040   13.6943253666753986
   Fe   O 
    12    18
Direct
  0.6666666666666643  0.3333333333333357  0.9783333333333317
  0.0000000000000000  0.0000000000000000  0.8549999999999969
  0.3333333333333357  0.6666666666666643  0.8116666666666674
  0.6666666666666643  0.3333333333333357  0.6883333333333326
  0.0000000000000000  0.0000000000000000  0.6450000000000031
  0.3333333333333357  0.6666666666666643  0.5216666666666683
  0.6666666666666643  0.3333333333333357  0.4783333333333317
  0.0000000000000000  0.0000000000000000  0.3549999999999969
  0.3333333333333357  0.6666666666666643  0.3116666666666674
  0.6666666666666643  0.3333333333333357  0.1883333333333326
  0.0000000000000000  0.0000000000000000  0.1450000000000031
  0.3333333333333357  0.6666666666666643  0.0216666666666683
  0.2999999999999972  0.0000000000000000  0.2500000000000000
  0.9666666666666686  0.3333333333333357  0.5833333333333357
  0.6333333333333329  0.6666666666666643  0.9166666666666643
  0.0000000000000000  0.2999999999999972  0.2500000000000000
  0.6666666666666643  0.6333333333333329  0.5833333333333357
  0.3333333333333357  0.9666666666666686  0.9166666666666643
  0.7000000000000028  0.7000000000000028  0.2500000000000000
  0.3666666666666671  0.0333333333333314  0.5833333333333357
  0.0333333333333314  0.3666666666666671  0.9166666666666643
  0.7000000000000028  0.0000000000000000  0.7500000000000000
  0.3666666666666671  0.3333333333333357  0.0833333333333357
  0.0333333333333314  0.6666666666666643  0.4166666666666643
  0.0000000000000000  0.7000000000000028  0.7500000000000000
  0.6666666666666643  0.0333333333333314  0.0833333333333357
  0.3333333333333357  0.3666666666666671  0.4166666666666643
  0.2999999999999972  0.2999999999999972  0.7500000000000000
  0.9666666666666686  0.6333333333333329  0.0833333333333357
  0.6333333333333329  0.9666666666666686  0.4166666666666643
 
  0.00000000E+00  0.00000000E+00  0.00000000E+00
  0.00000000E+00  0.00000000E+00  0.00000000E+00
  0.00000000E+00  0.00000000E+00  0.00000000E+00
  0.00000000E+00  0.00000000E+00  0.00000000E+00
  0.00000000E+00  0.00000000E+00  0.00000000E+00
  0.00000000E+00  0.00000000E+00  0.00000000E+00
  0.00000000E+00  0.00000000E+00  0.00000000E+00
  0.00000000E+00  0.00000000E+00  0.00000000E+00
  0.00000000E+00  0.00000000E+00  0.00000000E+00
  0.00000000E+00  0.00000000E+00  0.00000000E+00
  0.00000000E+00  0.00000000E+00  0.00000000E+00
  0.00000000E+00  0.00000000E+00  0.00000000E+00
  0.00000000E+00  0.00000000E+00  0.00000000E+00
  0.00000000E+00  0.00000000E+00  0.00000000E+00
  0.00000000E+00  0.00000000E+00  0.00000000E+00
  0.00000000E+00  0.00000000E+00  0.00000000E+00
  0.00000000E+00  0.00000000E+00  0.00000000E+00
  0.00000000E+00  0.00000000E+00  0.00000000E+00
  0.00000000E+00  0.00000000E+00  0.00000000E+00
  0.00000000E+00  0.00000000E+00  0.00000000E+00
  0.00000000E+00  0.00000000E+00  0.00000000E+00
  0.00000000E+00  0.00000000E+00  0.00000000E+00
  0.00000000E+00  0.00000000E+00  0.00000000E+00
  0.00000000E+00  0.00000000E+00  0.00000000E+00
  0.00000000E+00  0.00000000E+00  0.00000000E+00
  0.00000000E+00  0.00000000E+00  0.00000000E+00
  0.00000000E+00  0.00000000E+00  0.00000000E+00
  0.00000000E+00  0.00000000E+00  0.00000000E+00
  0.00000000E+00  0.00000000E+00  0.00000000E+00
  0.00000000E+00  0.00000000E+00  0.00000000E+00
